Cases/Case57/case57.dat

set Buses :=     1     2     3     4     5     6     7     8     9    10    11    12    13    14    15    16    17    18    19    20    21    22    23    24    25    26    27    28    29    30    31    32    33    34    35    36    37    38    39    40    41    42    43    44    45    46    47    48    49    50    51    52    53    54    55    56    57;
set Lines :=   1   2   3   4   5   6   7   8   9  10  11  12  13  14  15  16  17  18  19  20  21  22  23  24  25  26  27  28  29  30  31  32  33  34  35  36  37  38  39  40  41  42  43  44  45  46  47  48  49  50  51  52  53  54  55  56  57  58  59  60  61  62  63  64  65  66  67  68  69  70  71  72  73  74  75  76  77  78  79  80;
set Generators :=   1   2   3   4   5   6   7;


# Generator data:

param Cost1 :=    1  775.794999999999960,   2  100.000000000000000,   3 2500.000000000000000,   4  100.000000000000000,   5  222.222000000000010,   6  100.000000000000000,   7  322.580999999999960;
param Cost2 :=    1 2000.000000000000000,   2 4000.000000000000000,   3 2000.000000000000000,   4 4000.000000000000000,   5 2000.000000000000000,   6 4000.000000000000000,   7 2000.000000000000000;
param Cost3 :=    1    0.000000000000000,   2    0.000000000000000,   3    0.000000000000000,   4    0.000000000000000,   5    0.000000000000000,   6    0.000000000000000,   7    0.000000000000000;
param RealPowerGenLimitLower :=    1    0.000000000000000,   2    0.000000000000000,   3    0.000000000000000,   4    0.000000000000000,   5    0.000000000000000,   6    0.000000000000000,   7    0.000000000000000;
param RealPowerGenLimitUpper :=    1    5.758800000000000,   2    1.000000000000000,   3    1.400000000000000,   4    1.000000000000000,   5    5.500000000000000,   6    1.000000000000000,   7    4.100000000000000;
param ReactivePowerGenLimitLower :=    1   -1.400000000000000,   2   -0.170000000000000,   3   -0.100000000000000,   4   -0.080000000000000,   5   -1.400000000000000,   6   -0.030000000000000,   7   -1.500000000000000;
param ReactivePowerGenLimitUpper :=    1    2.000000000000000,   2    0.500000000000000,   3    0.600000000000000,   4    0.250000000000000,   5    2.000000000000000,   6    0.090000000000000,   7    1.550000000000000;
param GenLocation :=    1            1,   2            2,   3            3,   4            6,   5            8,   6            9,   7           12;


# Bus data:

param SusceptanceOfReactivePower :=    1    0.000000000000000,   2    0.000000000000000,   3    0.000000000000000,   4    0.000000000000000,   5    0.000000000000000,   6    0.000000000000000,   7    0.000000000000000,   8    0.000000000000000,   9    0.000000000000000,  10    0.000000000000000,  11    0.000000000000000,  12    0.000000000000000,  13    0.000000000000000,  14    0.000000000000000,  15    0.000000000000000,  16    0.000000000000000,  17    0.000000000000000,  18    0.100000000000000,  19    0.000000000000000,  20    0.000000000000000,  21    0.000000000000000,  22    0.000000000000000,  23    0.000000000000000,  24    0.000000000000000,  25    0.059000000000000,  26    0.000000000000000,  27    0.000000000000000,  28    0.000000000000000,  29    0.000000000000000,  30    0.000000000000000,  31    0.000000000000000,  32    0.000000000000000,  33    0.000000000000000,  34    0.000000000000000,  35    0.000000000000000,  36    0.000000000000000,  37    0.000000000000000,  38    0.000000000000000,  39    0.000000000000000,  40    0.000000000000000,  41    0.000000000000000,  42    0.000000000000000,  43    0.000000000000000,  44    0.000000000000000,  45    0.000000000000000,  46    0.000000000000000,  47    0.000000000000000,  48    0.000000000000000,  49    0.000000000000000,  50    0.000000000000000,  51    0.000000000000000,  52    0.000000000000000,  53    0.063000000000000,  54    0.000000000000000,  55    0.000000000000000,  56    0.000000000000000,  57    0.000000000000000;
param VoltageLimitLower :=    1    0.940000000000000,   2    0.940000000000000,   3    0.940000000000000,   4    0.940000000000000,   5    0.940000000000000,   6    0.940000000000000,   7    0.940000000000000,   8    0.940000000000000,   9    0.940000000000000,  10    0.940000000000000,  11    0.940000000000000,  12    0.940000000000000,  13    0.940000000000000,  14    0.940000000000000,  15    0.940000000000000,  16    0.940000000000000,  17    0.940000000000000,  18    0.940000000000000,  19    0.940000000000000,  20    0.940000000000000,  21    0.940000000000000,  22    0.940000000000000,  23    0.940000000000000,  24    0.940000000000000,  25    0.940000000000000,  26    0.940000000000000,  27    0.940000000000000,  28    0.940000000000000,  29    0.940000000000000,  30    0.940000000000000,  31    0.940000000000000,  32    0.940000000000000,  33    0.940000000000000,  34    0.940000000000000,  35    0.940000000000000,  36    0.940000000000000,  37    0.940000000000000,  38    0.940000000000000,  39    0.940000000000000,  40    0.940000000000000,  41    0.940000000000000,  42    0.940000000000000,  43    0.940000000000000,  44    0.940000000000000,  45    0.940000000000000,  46    0.940000000000000,  47    0.940000000000000,  48    0.940000000000000,  49    0.940000000000000,  50    0.940000000000000,  51    0.940000000000000,  52    0.940000000000000,  53    0.940000000000000,  54    0.940000000000000,  55    0.940000000000000,  56    0.940000000000000,  57    0.940000000000000;
param VoltageLimitUpper :=    1    1.060000000000000,   2    1.060000000000000,   3    1.060000000000000,   4    1.060000000000000,   5    1.060000000000000,   6    1.060000000000000,   7    1.060000000000000,   8    1.060000000000000,   9    1.060000000000000,  10    1.060000000000000,  11    1.060000000000000,  12    1.060000000000000,  13    1.060000000000000,  14    1.060000000000000,  15    1.060000000000000,  16    1.060000000000000,  17    1.060000000000000,  18    1.060000000000000,  19    1.060000000000000,  20    1.060000000000000,  21    1.060000000000000,  22    1.060000000000000,  23    1.060000000000000,  24    1.060000000000000,  25    1.060000000000000,  26    1.060000000000000,  27    1.060000000000000,  28    1.060000000000000,  29    1.060000000000000,  30    1.060000000000000,  31    1.060000000000000,  32    1.060000000000000,  33    1.060000000000000,  34    1.060000000000000,  35    1.060000000000000,  36    1.060000000000000,  37    1.060000000000000,  38    1.060000000000000,  39    1.060000000000000,  40    1.060000000000000,  41    1.060000000000000,  42    1.060000000000000,  43    1.060000000000000,  44    1.060000000000000,  45    1.060000000000000,  46    1.060000000000000,  47    1.060000000000000,  48    1.060000000000000,  49    1.060000000000000,  50    1.060000000000000,  51    1.060000000000000,  52    1.060000000000000,  53    1.060000000000000,  54    1.060000000000000,  55    1.060000000000000,  56    1.060000000000000,  57    1.060000000000000;
param RealPowerBusDemand :=    1    0.550000000000000,   2    0.030000000000000,   3    0.410000000000000,   4    0.000000000000000,   5    0.130000000000000,   6    0.750000000000000,   7    0.000000000000000,   8    1.500000000000000,   9    1.210000000000000,  10    0.050000000000000,  11    0.000000000000000,  12    3.770000000000000,  13    0.180000000000000,  14    0.105000000000000,  15    0.220000000000000,  16    0.430000000000000,  17    0.420000000000000,  18    0.272000000000000,  19    0.033000000000000,  20    0.023000000000000,  21    0.000000000000000,  22    0.000000000000000,  23    0.063000000000000,  24    0.000000000000000,  25    0.063000000000000,  26    0.000000000000000,  27    0.093000000000000,  28    0.046000000000000,  29    0.170000000000000,  30    0.036000000000000,  31    0.058000000000000,  32    0.016000000000000,  33    0.038000000000000,  34    0.000000000000000,  35    0.060000000000000,  36    0.000000000000000,  37    0.000000000000000,  38    0.140000000000000,  39    0.000000000000000,  40    0.000000000000000,  41    0.063000000000000,  42    0.071000000000000,  43    0.020000000000000,  44    0.120000000000000,  45    0.000000000000000,  46    0.000000000000000,  47    0.297000000000000,  48    0.000000000000000,  49    0.180000000000000,  50    0.210000000000000,  51    0.180000000000000,  52    0.049000000000000,  53    0.200000000000000,  54    0.041000000000000,  55    0.068000000000000,  56    0.076000000000000,  57    0.067000000000000;
param ReactivePowerBusDemand :=    1    0.170000000000000,   2    0.880000000000000,   3    0.210000000000000,   4    0.000000000000000,   5    0.040000000000000,   6    0.020000000000000,   7    0.000000000000000,   8    0.220000000000000,   9    0.260000000000000,  10    0.020000000000000,  11    0.000000000000000,  12    0.240000000000000,  13    0.023000000000000,  14    0.053000000000000,  15    0.050000000000000,  16    0.030000000000000,  17    0.080000000000000,  18    0.098000000000000,  19    0.006000000000000,  20    0.010000000000000,  21    0.000000000000000,  22    0.000000000000000,  23    0.021000000000000,  24    0.000000000000000,  25    0.032000000000000,  26    0.000000000000000,  27    0.005000000000000,  28    0.023000000000000,  29    0.026000000000000,  30    0.018000000000000,  31    0.029000000000000,  32    0.008000000000000,  33    0.019000000000000,  34    0.000000000000000,  35    0.030000000000000,  36    0.000000000000000,  37    0.000000000000000,  38    0.070000000000000,  39    0.000000000000000,  40    0.000000000000000,  41    0.030000000000000,  42    0.044000000000000,  43    0.010000000000000,  44    0.018000000000000,  45    0.000000000000000,  46    0.000000000000000,  47    0.116000000000000,  48    0.000000000000000,  49    0.085000000000000,  50    0.105000000000000,  51    0.053000000000000,  52    0.022000000000000,  53    0.100000000000000,  54    0.014000000000000,  55    0.034000000000000,  56    0.022000000000000,  57    0.020000000000000;


# Line data:

param ThermalLineLimit :=    1   99.000000000000000,   2   99.000000000000000,   3   99.000000000000000,   4   99.000000000000000,   5   99.000000000000000,   6   99.000000000000000,   7   99.000000000000000,   8   99.000000000000000,   9   99.000000000000000,  10   99.000000000000000,  11   99.000000000000000,  12   99.000000000000000,  13   99.000000000000000,  14   99.000000000000000,  15   99.000000000000000,  16   99.000000000000000,  17   99.000000000000000,  18   99.000000000000000,  19   99.000000000000000,  20   99.000000000000000,  21   99.000000000000000,  22   99.000000000000000,  23   99.000000000000000,  24   99.000000000000000,  25   99.000000000000000,  26   99.000000000000000,  27   99.000000000000000,  28   99.000000000000000,  29   99.000000000000000,  30   99.000000000000000,  31   99.000000000000000,  32   99.000000000000000,  33   99.000000000000000,  34   99.000000000000000,  35   99.000000000000000,  36   99.000000000000000,  37   99.000000000000000,  38   99.000000000000000,  39   99.000000000000000,  40   99.000000000000000,  41   99.000000000000000,  42   99.000000000000000,  43   99.000000000000000,  44   99.000000000000000,  45   99.000000000000000,  46   99.000000000000000,  47   99.000000000000000,  48   99.000000000000000,  49   99.000000000000000,  50   99.000000000000000,  51   99.000000000000000,  52   99.000000000000000,  53   99.000000000000000,  54   99.000000000000000,  55   99.000000000000000,  56   99.000000000000000,  57   99.000000000000000,  58   99.000000000000000,  59   99.000000000000000,  60   99.000000000000000,  61   99.000000000000000,  62   99.000000000000000,  63   99.000000000000000,  64   99.000000000000000,  65   99.000000000000000,  66   99.000000000000000,  67   99.000000000000000,  68   99.000000000000000,  69   99.000000000000000,  70   99.000000000000000,  71   99.000000000000000,  72   99.000000000000000,  73   99.000000000000000,  74   99.000000000000000,  75   99.000000000000000,  76   99.000000000000000,  77   99.000000000000000,  78   99.000000000000000,  79   99.000000000000000,  80   99.000000000000000;
param LineConductance :=    1    9.731618379861413,   2    3.673099109581611,   3    7.645051194539248,   4    2.930110992604400,   5    1.810297646613060,   6    1.851166234727879,   7    1.090796413306944,   8    3.738303640881182,   9    1.248645608658901,  10    3.283829811065234,  11    0.710339072902274,  12    1.763350968065017,  13    6.414617552726211,  14    3.250668864392729,  15    2.070287421026676,  16    1.020289834227623,  17    1.945964331618487,  18    5.274398978980543,  19    0.000000000000000,  20    0.000000000000000,  21    6.014917792804006,  22    2.641254881096026,  23    1.659305619534999,  24    3.808365767061222,  25    4.835852685799980,  26    2.596020300878753,  27    1.180946952874267,  28    5.206271883087228,  29    0.676204920894292,  30    1.054219672558625,  31    0.000000000000000,  32    3.852201093271419,  33   30.086612976751255,  34    1.783182228333262,  35    0.000000000000000,  36    0.000000000000000,  37    0.000000000000000,  38    1.798541546309720,  39    4.783133649113030,  40    8.049405634198804,  41    0.000000000000000,  42    2.287011468938996,  43    0.922767737096112,  44    0.613004398639058,  45   13.838680524175327,  46    0.000000000000000,  47    5.917159763313609,  48    9.085741935347551,  49   13.299335950398062,  50    4.514932567297463,  51   11.904643308992735,  52    9.767023922697261,  53   15.497743948211706,  54    0.000000000000000,  55    1.241356977085870,  56    0.000000000000000,  57    6.788084914479525,  58    0.000000000000000,  59    0.000000000000000,  60    4.463419367358820,  61   20.820701726287851,  62    3.534413490780012,  63    3.513156353878792,  64    2.049993817478963,  65    0.000000000000000,  66    0.000000000000000,  67    2.585960779475290,  68    4.919620375750533,  69    2.107913497874801,  70    2.130368463953907,  71    0.000000000000000,  72    3.229913972483617,  73    0.000000000000000,  74    0.910722814182902,  75    1.246537193003553,  76    0.000000000000000,  77    1.777759614205730,  78    2.581137496072183,  79    9.464066879405948,  80    0.000000000000000;
param LineSusceptance :=    1  -32.829555980255364,   2  -10.476960547464328,   3  -24.982935153583615,   4   -6.188394416380493,   5   -6.230791899970531,   6   -9.440947797112182,   7   -5.566601165253726,   8  -19.069124632777747,   9   -5.681506712569902,  10  -10.793363099935343,  11   -3.233796705342145,  12   -5.792296319215650,  13  -21.090484983963453,  14  -10.501231387201790,  15  -10.584053669293683,  16   -4.629508939446922,  17   -8.830426378772964,  18  -17.255749746047456,  19   -1.801801801801802,  20   -2.325581395348837,  21  -12.766762599958172,  22  -13.529305577988277,  23   -7.559724519325520,  24  -12.501003325061950,  25  -15.757272796426902,  26  -11.725358358969034,  27   -5.324672659055260,  28  -16.653980818998328,  29   -1.004773038639024,  30   -1.616718508446795,  31   -1.287498390627012,  32   -6.123743585771141,  33  -46.193587600668593,  34   -2.749967773815151,  35   -0.846023688663283,  36   -0.813008130081301,  37  -21.141649048625791,  38   -2.768663956137387,  39   -7.383672332125940,  40  -11.303830400178704,  41  -15.432098765432100,  42   -3.422046790560572,  43   -1.406796212689472,  44   -0.912856648860924,  45  -12.708992318120197,  46   -1.049317943336831,  47   -8.875739644970414,  48  -11.346612602980548,  49  -16.784679164985139,  50   -6.997798710296681,  51  -18.878074536017770,  52  -15.171443826589746,  53  -23.811637837096111,  54   -1.335113484646195,  55   -2.110906550406889,  56   -2.427184466019418,  57  -13.740587110624645,  58   -9.596928982725528,  59  -13.605442176870749,  60  -13.196196390452164,  61  -26.655074188049831,  62   -5.466898564875558,  63   -5.614032625424287,  64   -3.253958440442799,  65  -14.044943820224720,  66   -5.235602094240837,  67   -3.353499762565043,  68   -6.352895603331397,  69   -2.604025194392726,  70   -2.785961068623326,  71   -6.535947712418301,  72   -6.428771079847200,  73   -0.836820083682008,  74   -0.904135307389536,  75   -2.076584312109449,  76   -0.738007380073801,  77   -2.656422412031550,  78   -3.972707276563272,  79  -14.620769986774574,  80   -8.298755186721992;
param ShuntSusceptance :=    1    0.129000000000000,   2    0.081800000000000,   3    0.038000000000000,   4    0.025800000000000,   5    0.034800000000000,   6    0.027600000000000,   7    0.047000000000000,   8    0.054800000000000,   9    0.044000000000000,  10    0.021800000000000,  11    0.077200000000000,  12    0.040600000000000,  13    0.011000000000000,  14    0.023000000000000,  15    0.098800000000000,  16    0.054600000000000,  17    0.028600000000000,  18    0.054400000000000,  19    0.000000000000000,  20    0.000000000000000,  21    0.012400000000000,  22    0.019400000000000,  23    0.032800000000000,  24    0.018800000000000,  25    0.060400000000000,  26    0.021600000000000,  27    0.047600000000000,  28    0.014800000000000,  29    0.000000000000000,  30    0.000000000000000,  31    0.000000000000000,  32    0.000000000000000,  33    0.000000000000000,  34    0.008400000000000,  35    0.000000000000000,  36    0.000000000000000,  37    0.000000000000000,  38    0.000000000000000,  39    0.000000000000000,  40    0.000000000000000,  41    0.000000000000000,  42    0.000000000000000,  43    0.000000000000000,  44    0.000000000000000,  45    0.000000000000000,  46    0.000000000000000,  47    0.003200000000000,  48    0.001600000000000,  49    0.000000000000000,  50    0.002000000000000,  51    0.000000000000000,  52    0.000000000000000,  53    0.000000000000000,  54    0.000000000000000,  55    0.000000000000000,  56    0.000000000000000,  57    0.002000000000000,  58    0.000000000000000,  59    0.000000000000000,  60    0.003200000000000,  61    0.000000000000000,  62    0.004800000000000,  63    0.000000000000000,  64    0.000000000000000,  65    0.000000000000000,  66    0.000000000000000,  67    0.000000000000000,  68    0.000000000000000,  69    0.000000000000000,  70    0.000000000000000,  71    0.000000000000000,  72    0.004000000000000,  73    0.000000000000000,  74    0.000000000000000,  75    0.000000000000000,  76    0.000000000000000,  77    0.000000000000000,  78    0.003000000000000,  79    0.000000000000000,  80    0.000000000000000;
param LineResistance :=    1    0.008300000000000,   2    0.029800000000000,   3    0.011200000000000,   4    0.062500000000000,   5    0.043000000000000,   6    0.020000000000000,   7    0.033900000000000,   8    0.009900000000000,   9    0.036900000000000,  10    0.025800000000000,  11    0.064800000000000,  12    0.048100000000000,  13    0.013200000000000,  14    0.026900000000000,  15    0.017800000000000,  16    0.045400000000000,  17    0.023800000000000,  18    0.016200000000000,  19    0.000000000000000,  20    0.000000000000000,  21    0.030200000000000,  22    0.013900000000000,  23    0.027700000000000,  24    0.022300000000000,  25    0.017800000000000,  26    0.018000000000000,  27    0.039700000000000,  28    0.017100000000000,  29    0.461000000000000,  30    0.283000000000000,  31    0.000000000000000,  32    0.073600000000000,  33    0.009900000000000,  34    0.166000000000000,  35    0.000000000000000,  36    0.000000000000000,  37    0.000000000000000,  38    0.165000000000000,  39    0.061800000000000,  40    0.041800000000000,  41    0.000000000000000,  42    0.135000000000000,  43    0.326000000000000,  44    0.507000000000000,  45    0.039200000000000,  46    0.000000000000000,  47    0.052000000000000,  48    0.043000000000000,  49    0.029000000000000,  50    0.065100000000000,  51    0.023900000000000,  52    0.030000000000000,  53    0.019200000000000,  54    0.000000000000000,  55    0.207000000000000,  56    0.000000000000000,  57    0.028900000000000,  58    0.000000000000000,  59    0.000000000000000,  60    0.023000000000000,  61    0.018200000000000,  62    0.083400000000000,  63    0.080100000000000,  64    0.138600000000000,  65    0.000000000000000,  66    0.000000000000000,  67    0.144200000000000,  68    0.076200000000000,  69    0.187800000000000,  70    0.173200000000000,  71    0.000000000000000,  72    0.062400000000000,  73    0.000000000000000,  74    0.553000000000000,  75    0.212500000000000,  76    0.000000000000000,  77    0.174000000000000,  78    0.115000000000000,  79    0.031200000000000,  80    0.000000000000000;
param FromBus :=    1            1,   2            2,   3            3,   4            4,   5            4,   6            6,   7            6,   8            8,   9            9,  10            9,  11            9,  12            9,  13           13,  14           13,  15            1,  16            1,  17            1,  18            3,  19            4,  20            4,  21            5,  22            7,  23           10,  24           11,  25           12,  26           12,  27           12,  28           14,  29           18,  30           19,  31           21,  32           21,  33           22,  34           23,  35           24,  36           24,  37           24,  38           26,  39           27,  40           28,  41            7,  42           25,  43           30,  44           31,  45           32,  46           34,  47           34,  48           35,  49           36,  50           37,  51           37,  52           36,  53           22,  54           11,  55           41,  56           41,  57           38,  58           15,  59           14,  60           46,  61           47,  62           48,  63           49,  64           50,  65           10,  66           13,  67           29,  68           52,  69           53,  70           54,  71           11,  72           44,  73           40,  74           56,  75           56,  76           39,  77           57,  78           38,  79           38,  80            9;
param ToBus :=    1            2,   2            3,   3            4,   4            5,   5            6,   6            7,   7            8,   8            9,   9           10,  10           11,  11           12,  12           13,  13           14,  14           15,  15           15,  16           16,  17           17,  18           15,  19           18,  20           18,  21            6,  22            8,  23           12,  24           13,  25           13,  26           16,  27           17,  28           15,  29           19,  30           20,  31           20,  32           22,  33           23,  34           24,  35           25,  36           25,  37           26,  38           27,  39           28,  40           29,  41           29,  42           30,  43           31,  44           32,  45           33,  46           32,  47           35,  48           36,  49           37,  50           38,  51           39,  52           40,  53           38,  54           41,  55           42,  56           43,  57           44,  58           45,  59           46,  60           47,  61           48,  62           49,  63           50,  64           51,  65           51,  66           49,  67           52,  68           53,  69           54,  70           55,  71           43,  72           45,  73           56,  74           41,  75           42,  76           57,  77           56,  78           49,  79           48,  80           55;
