SQP/Cases/Case57/case57.col
VoltageLevel[1]
VoltageLevel[2]
VoltageLevel[3]
VoltageLevel[4]
VoltageLevel[5]
VoltageLevel[6]
VoltageLevel[7]
VoltageLevel[8]
VoltageLevel[9]
VoltageLevel[10]
VoltageLevel[11]
VoltageLevel[12]
VoltageLevel[13]
VoltageLevel[14]
VoltageLevel[15]
VoltageLevel[16]
VoltageLevel[17]
VoltageLevel[18]
VoltageLevel[19]
VoltageLevel[20]
VoltageLevel[21]
VoltageLevel[22]
VoltageLevel[23]
VoltageLevel[24]
VoltageLevel[25]
VoltageLevel[26]
VoltageLevel[27]
VoltageLevel[28]
VoltageLevel[29]
VoltageLevel[30]
VoltageLevel[31]
VoltageLevel[32]
VoltageLevel[33]
VoltageLevel[34]
VoltageLevel[35]
VoltageLevel[36]
VoltageLevel[37]
VoltageLevel[38]
VoltageLevel[39]
VoltageLevel[40]
VoltageLevel[41]
VoltageLevel[42]
VoltageLevel[43]
VoltageLevel[44]
VoltageLevel[45]
VoltageLevel[46]
VoltageLevel[47]
VoltageLevel[48]
VoltageLevel[49]
VoltageLevel[50]
VoltageLevel[51]
VoltageLevel[52]
VoltageLevel[53]
VoltageLevel[54]
VoltageLevel[55]
VoltageLevel[56]
VoltageLevel[57]
VoltagePhase[1]
VoltagePhase[2]
VoltagePhase[3]
VoltagePhase[4]
VoltagePhase[5]
VoltagePhase[6]
VoltagePhase[7]
VoltagePhase[8]
VoltagePhase[9]
VoltagePhase[10]
VoltagePhase[11]
VoltagePhase[12]
VoltagePhase[13]
VoltagePhase[14]
VoltagePhase[15]
VoltagePhase[16]
VoltagePhase[17]
VoltagePhase[18]
VoltagePhase[19]
VoltagePhase[20]
VoltagePhase[21]
VoltagePhase[22]
VoltagePhase[23]
VoltagePhase[24]
VoltagePhase[25]
VoltagePhase[26]
VoltagePhase[27]
VoltagePhase[28]
VoltagePhase[29]
VoltagePhase[30]
VoltagePhase[31]
VoltagePhase[32]
VoltagePhase[33]
VoltagePhase[34]
VoltagePhase[35]
VoltagePhase[36]
VoltagePhase[37]
VoltagePhase[38]
VoltagePhase[39]
VoltagePhase[40]
VoltagePhase[41]
VoltagePhase[42]
VoltagePhase[43]
VoltagePhase[44]
VoltagePhase[45]
VoltagePhase[46]
VoltagePhase[47]
VoltagePhase[48]
VoltagePhase[49]
VoltagePhase[50]
VoltagePhase[51]
VoltagePhase[52]
VoltagePhase[53]
VoltagePhase[54]
VoltagePhase[55]
VoltagePhase[56]
VoltagePhase[57]
RealPowerInjectionFromBus[1]
RealPowerInjectionFromBus[2]
RealPowerInjectionFromBus[3]
RealPowerInjectionFromBus[4]
RealPowerInjectionFromBus[5]
RealPowerInjectionFromBus[6]
RealPowerInjectionFromBus[7]
RealPowerInjectionFromBus[8]
RealPowerInjectionFromBus[9]
RealPowerInjectionFromBus[10]
RealPowerInjectionFromBus[11]
RealPowerInjectionFromBus[12]
RealPowerInjectionFromBus[13]
RealPowerInjectionFromBus[14]
RealPowerInjectionFromBus[15]
RealPowerInjectionFromBus[16]
RealPowerInjectionFromBus[17]
RealPowerInjectionFromBus[18]
RealPowerInjectionFromBus[19]
RealPowerInjectionFromBus[20]
RealPowerInjectionFromBus[21]
RealPowerInjectionFromBus[22]
RealPowerInjectionFromBus[23]
RealPowerInjectionFromBus[24]
RealPowerInjectionFromBus[25]
RealPowerInjectionFromBus[26]
RealPowerInjectionFromBus[27]
RealPowerInjectionFromBus[28]
RealPowerInjectionFromBus[29]
RealPowerInjectionFromBus[30]
RealPowerInjectionFromBus[31]
RealPowerInjectionFromBus[32]
RealPowerInjectionFromBus[33]
RealPowerInjectionFromBus[34]
RealPowerInjectionFromBus[35]
RealPowerInjectionFromBus[36]
RealPowerInjectionFromBus[37]
RealPowerInjectionFromBus[38]
RealPowerInjectionFromBus[39]
RealPowerInjectionFromBus[40]
RealPowerInjectionFromBus[41]
RealPowerInjectionFromBus[42]
RealPowerInjectionFromBus[43]
RealPowerInjectionFromBus[44]
RealPowerInjectionFromBus[45]
RealPowerInjectionFromBus[46]
RealPowerInjectionFromBus[47]
RealPowerInjectionFromBus[48]
RealPowerInjectionFromBus[49]
RealPowerInjectionFromBus[50]
RealPowerInjectionFromBus[51]
RealPowerInjectionFromBus[52]
RealPowerInjectionFromBus[53]
RealPowerInjectionFromBus[54]
RealPowerInjectionFromBus[55]
RealPowerInjectionFromBus[56]
RealPowerInjectionFromBus[57]
RealPowerInjectionFromBus[58]
RealPowerInjectionFromBus[59]
RealPowerInjectionFromBus[60]
RealPowerInjectionFromBus[61]
RealPowerInjectionFromBus[62]
RealPowerInjectionFromBus[63]
RealPowerInjectionFromBus[64]
RealPowerInjectionFromBus[65]
RealPowerInjectionFromBus[66]
RealPowerInjectionFromBus[67]
RealPowerInjectionFromBus[68]
RealPowerInjectionFromBus[69]
RealPowerInjectionFromBus[70]
RealPowerInjectionFromBus[71]
RealPowerInjectionFromBus[72]
RealPowerInjectionFromBus[73]
RealPowerInjectionFromBus[74]
RealPowerInjectionFromBus[75]
RealPowerInjectionFromBus[76]
RealPowerInjectionFromBus[77]
RealPowerInjectionFromBus[78]
RealPowerInjectionFromBus[79]
RealPowerInjectionFromBus[80]
RealPowerInjectionToBus[1]
RealPowerInjectionToBus[2]
RealPowerInjectionToBus[3]
RealPowerInjectionToBus[4]
RealPowerInjectionToBus[5]
RealPowerInjectionToBus[6]
RealPowerInjectionToBus[7]
RealPowerInjectionToBus[8]
RealPowerInjectionToBus[9]
RealPowerInjectionToBus[10]
RealPowerInjectionToBus[11]
RealPowerInjectionToBus[12]
RealPowerInjectionToBus[13]
RealPowerInjectionToBus[14]
RealPowerInjectionToBus[15]
RealPowerInjectionToBus[16]
RealPowerInjectionToBus[17]
RealPowerInjectionToBus[18]
RealPowerInjectionToBus[19]
RealPowerInjectionToBus[20]
RealPowerInjectionToBus[21]
RealPowerInjectionToBus[22]
RealPowerInjectionToBus[23]
RealPowerInjectionToBus[24]
RealPowerInjectionToBus[25]
RealPowerInjectionToBus[26]
RealPowerInjectionToBus[27]
RealPowerInjectionToBus[28]
RealPowerInjectionToBus[29]
RealPowerInjectionToBus[30]
RealPowerInjectionToBus[31]
RealPowerInjectionToBus[32]
RealPowerInjectionToBus[33]
RealPowerInjectionToBus[34]
RealPowerInjectionToBus[35]
RealPowerInjectionToBus[36]
RealPowerInjectionToBus[37]
RealPowerInjectionToBus[38]
RealPowerInjectionToBus[39]
RealPowerInjectionToBus[40]
RealPowerInjectionToBus[41]
RealPowerInjectionToBus[42]
RealPowerInjectionToBus[43]
RealPowerInjectionToBus[44]
RealPowerInjectionToBus[45]
RealPowerInjectionToBus[46]
RealPowerInjectionToBus[47]
RealPowerInjectionToBus[48]
RealPowerInjectionToBus[49]
RealPowerInjectionToBus[50]
RealPowerInjectionToBus[51]
RealPowerInjectionToBus[52]
RealPowerInjectionToBus[53]
RealPowerInjectionToBus[54]
RealPowerInjectionToBus[55]
RealPowerInjectionToBus[56]
RealPowerInjectionToBus[57]
RealPowerInjectionToBus[58]
RealPowerInjectionToBus[59]
RealPowerInjectionToBus[60]
RealPowerInjectionToBus[61]
RealPowerInjectionToBus[62]
RealPowerInjectionToBus[63]
RealPowerInjectionToBus[64]
RealPowerInjectionToBus[65]
RealPowerInjectionToBus[66]
RealPowerInjectionToBus[67]
RealPowerInjectionToBus[68]
RealPowerInjectionToBus[69]
RealPowerInjectionToBus[70]
RealPowerInjectionToBus[71]
RealPowerInjectionToBus[72]
RealPowerInjectionToBus[73]
RealPowerInjectionToBus[74]
RealPowerInjectionToBus[75]
RealPowerInjectionToBus[76]
RealPowerInjectionToBus[77]
RealPowerInjectionToBus[78]
RealPowerInjectionToBus[79]
RealPowerInjectionToBus[80]
ReactivePowerInjectionFromBus[1]
ReactivePowerInjectionFromBus[2]
ReactivePowerInjectionFromBus[3]
ReactivePowerInjectionFromBus[4]
ReactivePowerInjectionFromBus[5]
ReactivePowerInjectionFromBus[6]
ReactivePowerInjectionFromBus[7]
ReactivePowerInjectionFromBus[8]
ReactivePowerInjectionFromBus[9]
ReactivePowerInjectionFromBus[10]
ReactivePowerInjectionFromBus[11]
ReactivePowerInjectionFromBus[12]
ReactivePowerInjectionFromBus[13]
ReactivePowerInjectionFromBus[14]
ReactivePowerInjectionFromBus[15]
ReactivePowerInjectionFromBus[16]
ReactivePowerInjectionFromBus[17]
ReactivePowerInjectionFromBus[18]
ReactivePowerInjectionFromBus[19]
ReactivePowerInjectionFromBus[20]
ReactivePowerInjectionFromBus[21]
ReactivePowerInjectionFromBus[22]
ReactivePowerInjectionFromBus[23]
ReactivePowerInjectionFromBus[24]
ReactivePowerInjectionFromBus[25]
ReactivePowerInjectionFromBus[26]
ReactivePowerInjectionFromBus[27]
ReactivePowerInjectionFromBus[28]
ReactivePowerInjectionFromBus[29]
ReactivePowerInjectionFromBus[30]
ReactivePowerInjectionFromBus[31]
ReactivePowerInjectionFromBus[32]
ReactivePowerInjectionFromBus[33]
ReactivePowerInjectionFromBus[34]
ReactivePowerInjectionFromBus[35]
ReactivePowerInjectionFromBus[36]
ReactivePowerInjectionFromBus[37]
ReactivePowerInjectionFromBus[38]
ReactivePowerInjectionFromBus[39]
ReactivePowerInjectionFromBus[40]
ReactivePowerInjectionFromBus[41]
ReactivePowerInjectionFromBus[42]
ReactivePowerInjectionFromBus[43]
ReactivePowerInjectionFromBus[44]
ReactivePowerInjectionFromBus[45]
ReactivePowerInjectionFromBus[46]
ReactivePowerInjectionFromBus[47]
ReactivePowerInjectionFromBus[48]
ReactivePowerInjectionFromBus[49]
ReactivePowerInjectionFromBus[50]
ReactivePowerInjectionFromBus[51]
ReactivePowerInjectionFromBus[52]
ReactivePowerInjectionFromBus[53]
ReactivePowerInjectionFromBus[54]
ReactivePowerInjectionFromBus[55]
ReactivePowerInjectionFromBus[56]
ReactivePowerInjectionFromBus[57]
ReactivePowerInjectionFromBus[58]
ReactivePowerInjectionFromBus[59]
ReactivePowerInjectionFromBus[60]
ReactivePowerInjectionFromBus[61]
ReactivePowerInjectionFromBus[62]
ReactivePowerInjectionFromBus[63]
ReactivePowerInjectionFromBus[64]
ReactivePowerInjectionFromBus[65]
ReactivePowerInjectionFromBus[66]
ReactivePowerInjectionFromBus[67]
ReactivePowerInjectionFromBus[68]
ReactivePowerInjectionFromBus[69]
ReactivePowerInjectionFromBus[70]
ReactivePowerInjectionFromBus[71]
ReactivePowerInjectionFromBus[72]
ReactivePowerInjectionFromBus[73]
ReactivePowerInjectionFromBus[74]
ReactivePowerInjectionFromBus[75]
ReactivePowerInjectionFromBus[76]
ReactivePowerInjectionFromBus[77]
ReactivePowerInjectionFromBus[78]
ReactivePowerInjectionFromBus[79]
ReactivePowerInjectionFromBus[80]
ReactivePowerInjectionToBus[1]
ReactivePowerInjectionToBus[2]
ReactivePowerInjectionToBus[3]
ReactivePowerInjectionToBus[4]
ReactivePowerInjectionToBus[5]
ReactivePowerInjectionToBus[6]
ReactivePowerInjectionToBus[7]
ReactivePowerInjectionToBus[8]
ReactivePowerInjectionToBus[9]
ReactivePowerInjectionToBus[10]
ReactivePowerInjectionToBus[11]
ReactivePowerInjectionToBus[12]
ReactivePowerInjectionToBus[13]
ReactivePowerInjectionToBus[14]
ReactivePowerInjectionToBus[15]
ReactivePowerInjectionToBus[16]
ReactivePowerInjectionToBus[17]
ReactivePowerInjectionToBus[18]
ReactivePowerInjectionToBus[19]
ReactivePowerInjectionToBus[20]
ReactivePowerInjectionToBus[21]
ReactivePowerInjectionToBus[22]
ReactivePowerInjectionToBus[23]
ReactivePowerInjectionToBus[24]
ReactivePowerInjectionToBus[25]
ReactivePowerInjectionToBus[26]
ReactivePowerInjectionToBus[27]
ReactivePowerInjectionToBus[28]
ReactivePowerInjectionToBus[29]
ReactivePowerInjectionToBus[30]
ReactivePowerInjectionToBus[31]
ReactivePowerInjectionToBus[32]
ReactivePowerInjectionToBus[33]
ReactivePowerInjectionToBus[34]
ReactivePowerInjectionToBus[35]
ReactivePowerInjectionToBus[36]
ReactivePowerInjectionToBus[37]
ReactivePowerInjectionToBus[38]
ReactivePowerInjectionToBus[39]
ReactivePowerInjectionToBus[40]
ReactivePowerInjectionToBus[41]
ReactivePowerInjectionToBus[42]
ReactivePowerInjectionToBus[43]
ReactivePowerInjectionToBus[44]
ReactivePowerInjectionToBus[45]
ReactivePowerInjectionToBus[46]
ReactivePowerInjectionToBus[47]
ReactivePowerInjectionToBus[48]
ReactivePowerInjectionToBus[49]
ReactivePowerInjectionToBus[50]
ReactivePowerInjectionToBus[51]
ReactivePowerInjectionToBus[52]
ReactivePowerInjectionToBus[53]
ReactivePowerInjectionToBus[54]
ReactivePowerInjectionToBus[55]
ReactivePowerInjectionToBus[56]
ReactivePowerInjectionToBus[57]
ReactivePowerInjectionToBus[58]
ReactivePowerInjectionToBus[59]
ReactivePowerInjectionToBus[60]
ReactivePowerInjectionToBus[61]
ReactivePowerInjectionToBus[62]
ReactivePowerInjectionToBus[63]
ReactivePowerInjectionToBus[64]
ReactivePowerInjectionToBus[65]
ReactivePowerInjectionToBus[66]
ReactivePowerInjectionToBus[67]
ReactivePowerInjectionToBus[68]
ReactivePowerInjectionToBus[69]
ReactivePowerInjectionToBus[70]
ReactivePowerInjectionToBus[71]
ReactivePowerInjectionToBus[72]
ReactivePowerInjectionToBus[73]
ReactivePowerInjectionToBus[74]
ReactivePowerInjectionToBus[75]
ReactivePowerInjectionToBus[76]
ReactivePowerInjectionToBus[77]
ReactivePowerInjectionToBus[78]
ReactivePowerInjectionToBus[79]
ReactivePowerInjectionToBus[80]
RealPowerGeneration[1]
RealPowerGeneration[2]
RealPowerGeneration[3]
RealPowerGeneration[4]
RealPowerGeneration[5]
RealPowerGeneration[6]
RealPowerGeneration[7]
ReactivePowerGeneration[1]
ReactivePowerGeneration[2]
ReactivePowerGeneration[3]
ReactivePowerGeneration[4]
ReactivePowerGeneration[5]
ReactivePowerGeneration[6]
ReactivePowerGeneration[7]
RealPowerGenerationAtBuses[1]
RealPowerGenerationAtBuses[2]
RealPowerGenerationAtBuses[3]
RealPowerGenerationAtBuses[4]
RealPowerGenerationAtBuses[5]
RealPowerGenerationAtBuses[6]
RealPowerGenerationAtBuses[7]
RealPowerGenerationAtBuses[8]
RealPowerGenerationAtBuses[9]
RealPowerGenerationAtBuses[10]
RealPowerGenerationAtBuses[11]
RealPowerGenerationAtBuses[12]
RealPowerGenerationAtBuses[13]
RealPowerGenerationAtBuses[14]
RealPowerGenerationAtBuses[15]
RealPowerGenerationAtBuses[16]
RealPowerGenerationAtBuses[17]
RealPowerGenerationAtBuses[18]
RealPowerGenerationAtBuses[19]
RealPowerGenerationAtBuses[20]
RealPowerGenerationAtBuses[21]
RealPowerGenerationAtBuses[22]
RealPowerGenerationAtBuses[23]
RealPowerGenerationAtBuses[24]
RealPowerGenerationAtBuses[25]
RealPowerGenerationAtBuses[26]
RealPowerGenerationAtBuses[27]
RealPowerGenerationAtBuses[28]
RealPowerGenerationAtBuses[29]
RealPowerGenerationAtBuses[30]
RealPowerGenerationAtBuses[31]
RealPowerGenerationAtBuses[32]
RealPowerGenerationAtBuses[33]
RealPowerGenerationAtBuses[34]
RealPowerGenerationAtBuses[35]
RealPowerGenerationAtBuses[36]
RealPowerGenerationAtBuses[37]
RealPowerGenerationAtBuses[38]
RealPowerGenerationAtBuses[39]
RealPowerGenerationAtBuses[40]
RealPowerGenerationAtBuses[41]
RealPowerGenerationAtBuses[42]
RealPowerGenerationAtBuses[43]
RealPowerGenerationAtBuses[44]
RealPowerGenerationAtBuses[45]
RealPowerGenerationAtBuses[46]
RealPowerGenerationAtBuses[47]
RealPowerGenerationAtBuses[48]
RealPowerGenerationAtBuses[49]
RealPowerGenerationAtBuses[50]
RealPowerGenerationAtBuses[51]
RealPowerGenerationAtBuses[52]
RealPowerGenerationAtBuses[53]
RealPowerGenerationAtBuses[54]
RealPowerGenerationAtBuses[55]
RealPowerGenerationAtBuses[56]
RealPowerGenerationAtBuses[57]
ReactivePowerGenerationAtBuses[1]
ReactivePowerGenerationAtBuses[2]
ReactivePowerGenerationAtBuses[3]
ReactivePowerGenerationAtBuses[4]
ReactivePowerGenerationAtBuses[5]
ReactivePowerGenerationAtBuses[6]
ReactivePowerGenerationAtBuses[7]
ReactivePowerGenerationAtBuses[8]
ReactivePowerGenerationAtBuses[9]
ReactivePowerGenerationAtBuses[10]
ReactivePowerGenerationAtBuses[11]
ReactivePowerGenerationAtBuses[12]
ReactivePowerGenerationAtBuses[13]
ReactivePowerGenerationAtBuses[14]
ReactivePowerGenerationAtBuses[15]
ReactivePowerGenerationAtBuses[16]
ReactivePowerGenerationAtBuses[17]
ReactivePowerGenerationAtBuses[18]
ReactivePowerGenerationAtBuses[19]
ReactivePowerGenerationAtBuses[20]
ReactivePowerGenerationAtBuses[21]
ReactivePowerGenerationAtBuses[22]
ReactivePowerGenerationAtBuses[23]
ReactivePowerGenerationAtBuses[24]
ReactivePowerGenerationAtBuses[25]
ReactivePowerGenerationAtBuses[26]
ReactivePowerGenerationAtBuses[27]
ReactivePowerGenerationAtBuses[28]
ReactivePowerGenerationAtBuses[29]
ReactivePowerGenerationAtBuses[30]
ReactivePowerGenerationAtBuses[31]
ReactivePowerGenerationAtBuses[32]
ReactivePowerGenerationAtBuses[33]
ReactivePowerGenerationAtBuses[34]
ReactivePowerGenerationAtBuses[35]
ReactivePowerGenerationAtBuses[36]
ReactivePowerGenerationAtBuses[37]
ReactivePowerGenerationAtBuses[38]
ReactivePowerGenerationAtBuses[39]
ReactivePowerGenerationAtBuses[40]
ReactivePowerGenerationAtBuses[41]
ReactivePowerGenerationAtBuses[42]
ReactivePowerGenerationAtBuses[43]
ReactivePowerGenerationAtBuses[44]
ReactivePowerGenerationAtBuses[45]
ReactivePowerGenerationAtBuses[46]
ReactivePowerGenerationAtBuses[47]
ReactivePowerGenerationAtBuses[48]
ReactivePowerGenerationAtBuses[49]
ReactivePowerGenerationAtBuses[50]
ReactivePowerGenerationAtBuses[51]
ReactivePowerGenerationAtBuses[52]
ReactivePowerGenerationAtBuses[53]
ReactivePowerGenerationAtBuses[54]
ReactivePowerGenerationAtBuses[55]
ReactivePowerGenerationAtBuses[56]
ReactivePowerGenerationAtBuses[57]
